(set-logic QF_UF)
(declare-sort _ 2)
(declare-sort U 0)
(declare-sort I 0)
(declare-fun .uf-not (Bool ) Bool)
(declare-fun ite (Bool I I ) I)
(declare-const @d2 () I)
(declare-fun op1 (I I ) I)
(declare-fun op (I I ) I)
(declare-fun e6 () I)
(declare-fun e5 () I)
(declare-fun e4 () I)
(declare-fun e3 () I)
(declare-fun e2 () I)
(declare-fun e1 () I)
(declare-fun e0 () I)
(assert
(let ((?def81 (= (op e0 e1) e5)))
(let ((?def64 (= (op e0 e0) e3)))
(let ((?def2813 (and ?def64 ?def81)))
(let ((?def86 (= e0 (op e0 e2))))
(let ((?def2814 (and ?def86 ?def2813)))
(let ((?def111 (= (op e0 e3) e6)))
(let ((?def2815 (and ?def111 ?def2814)))
(let ((?def121 (= e4 (op e0 e4))))
(let ((?def2816 (and ?def121 ?def2815)))
(let ((?def131 (= e2 (op e0 e5))))
(let ((?def2817 (and ?def131 ?def2816)))
(let ((?def143 (= e1 (op e0 e6))))
(let ((?def2818 (and ?def143 ?def2817)))
(let ((?def159 (= e2 (op e1 e0))))
(let ((?def2819 (and ?def159 ?def2818)))
(let ((?def169 (= e0 (op e1 e1))))
(let ((?def2820 (and ?def169 ?def2819)))
(let ((?def188 (= e3 (op e1 e2))))
(let ((?def2821 (and ?def188 ?def2820)))
(let ((?def206 (= e5 (op e1 e3))))
(let ((?def2822 (and ?def206 ?def2821)))
(let ((?def212 (= e1 (op e1 e4))))
(let ((?def2823 (and ?def212 ?def2822)))
(let ((?def232 (= e4 (op e1 e5))))
(let ((?def2824 (and ?def232 ?def2823)))
(let ((?def250 (= e6 (op e1 e6))))
(let ((?def2825 (and ?def250 ?def2824)))
(let ((?def265 (= e6 (op e2 e0))))
(let ((?def2826 (and ?def265 ?def2825)))
(let ((?def274 (= e4 (op e2 e1))))
(let ((?def2827 (and ?def274 ?def2826)))
(let ((?def282 (= e1 (op e2 e2))))
(let ((?def2828 (and ?def282 ?def2827)))
(let ((?def298 (= e2 (op e2 e3))))
(let ((?def2829 (and ?def298 ?def2828)))
(let ((?def309 (= e0 (op e2 e4))))
(let ((?def2830 (and ?def309 ?def2829)))
(let ((?def332 (= e5 (op e2 e5))))
(let ((?def2831 (and ?def332 ?def2830)))
(let ((?def342 (= e3 (op e2 e6))))
(let ((?def2832 (and ?def342 ?def2831)))
(let ((?def359 (= e4 (op e3 e0))))
(let ((?def2833 (and ?def359 ?def2832)))
(let ((?def370 (= e3 (op e3 e1))))
(let ((?def2834 (and ?def370 ?def2833)))
(let ((?def382 (= e2 (op e3 e2))))
(let ((?def2835 (and ?def382 ?def2834)))
(let ((?def393 (= e0 (op e3 e3))))
(let ((?def2836 (and ?def393 ?def2835)))
(let ((?def418 (= e6 (op e3 e4))))
(let ((?def2837 (and ?def418 ?def2836)))
(let ((?def422 (= e1 (op e3 e5))))
(let ((?def2838 (and ?def422 ?def2837)))
(let ((?def444 (= e5 (op e3 e6))))
(let ((?def2839 (and ?def444 ?def2838)))
(let ((?def450 (= e0 (op e4 e0))))
(let ((?def2840 (and ?def450 ?def2839)))
(let ((?def474 (= e6 (op e4 e1))))
(let ((?def2841 (and ?def474 ?def2840)))
(let ((?def486 (= e5 (op e4 e2))))
(let ((?def2842 (and ?def486 ?def2841)))
(let ((?def492 (= e1 (op e4 e3))))
(let ((?def2843 (and ?def492 ?def2842)))
(let ((?def508 (= e2 (op e4 e4))))
(let ((?def2844 (and ?def508 ?def2843)))
(let ((?def524 (= e3 (op e4 e5))))
(let ((?def2845 (and ?def524 ?def2844)))
(let ((?def540 (= e4 (op e4 e6))))
(let ((?def2846 (and ?def540 ?def2845)))
(let ((?def557 (= e5 (op e5 e0))))
(let ((?def2847 (and ?def557 ?def2846)))
(let ((?def562 (= e1 (op e5 e1))))
(let ((?def2848 (and ?def562 ?def2847)))
(let ((?def586 (= e6 (op e5 e2))))
(let ((?def2849 (and ?def586 ?def2848)))
(let ((?def596 (= e4 (op e5 e3))))
(let ((?def2850 (and ?def596 ?def2849)))
(let ((?def608 (= e3 (op e5 e4))))
(let ((?def2851 (and ?def608 ?def2850)))
(let ((?def617 (= e0 (op e5 e5))))
(let ((?def2852 (and ?def617 ?def2851)))
(let ((?def634 (= e2 (op e5 e6))))
(let ((?def2853 (and ?def634 ?def2852)))
(let ((?def647 (= e1 (op e6 e0))))
(let ((?def2854 (and ?def647 ?def2853)))
(let ((?def662 (= e2 (op e6 e1))))
(let ((?def2855 (and ?def662 ?def2854)))
(let ((?def680 (= e4 (op e6 e2))))
(let ((?def2856 (and ?def680 ?def2855)))
(let ((?def692 (= e3 (op e6 e3))))
(let ((?def2857 (and ?def692 ?def2856)))
(let ((?def710 (= e5 (op e6 e4))))
(let ((?def2858 (and ?def710 ?def2857)))
(let ((?def726 (= e6 (op e6 e5))))
(let ((?def2859 (and ?def726 ?def2858)))
(let ((?def729 (= e0 (op e6 e6))))
(let ((?def2860 (and ?def729 ?def2859)))
(let ((?def2861 (not ?def2860)))

?def2861
)))))))))))))))))))))))))))))))))))))))))))))))))))))))))))))))))))))))))))))))))))))))))))))))))))
(assert
(let ((?def729 (= e0 (op e6 e6))))
(let ((?def1785 (not ?def729)))
(let ((?def726 (= e6 (op e6 e5))))
(let ((?def4320 (not ?def726)))
(let ((?def710 (= e5 (op e6 e4))))
(let ((?def4326 (not ?def710)))
(let ((?def692 (= e3 (op e6 e3))))
(let ((?def4331 (not ?def692)))
(let ((?def680 (= e4 (op e6 e2))))
(let ((?def4339 (not ?def680)))
(let ((?def662 (= e2 (op e6 e1))))
(let ((?def4344 (not ?def662)))
(let ((?def647 (= e1 (op e6 e0))))
(let ((?def4350 (not ?def647)))
(let ((?def634 (= e2 (op e5 e6))))
(let ((?def4358 (not ?def634)))
(let ((?def617 (= e0 (op e5 e5))))
(let ((?def1783 (not ?def617)))
(let ((?def608 (= e3 (op e5 e4))))
(let ((?def4366 (not ?def608)))
(let ((?def596 (= e4 (op e5 e3))))
(let ((?def4374 (not ?def596)))
(let ((?def586 (= e6 (op e5 e2))))
(let ((?def4313 (not ?def586)))
(let ((?def562 (= e1 (op e5 e1))))
(let ((?def4384 (not ?def562)))
(let ((?def557 (= e5 (op e5 e0))))
(let ((?def4395 (not ?def557)))
(let ((?def540 (= e4 (op e4 e6))))
(let ((?def4401 (not ?def540)))
(let ((?def524 (= e3 (op e4 e5))))
(let ((?def4407 (not ?def524)))
(let ((?def508 (= e2 (op e4 e4))))
(let ((?def1806 (not ?def508)))
(let ((?def492 (= e1 (op e4 e3))))
(let ((?def4412 (not ?def492)))
(let ((?def486 (= e5 (op e4 e2))))
(let ((?def4423 (not ?def486)))
(let ((?def474 (= e6 (op e4 e1))))
(let ((?def4431 (not ?def474)))
(let ((?def450 (= e0 (op e4 e0))))
(let ((?def4432 (not ?def450)))
(let ((?def444 (= e5 (op e3 e6))))
(let ((?def4444 (not ?def444)))
(let ((?def422 (= e1 (op e3 e5))))
(let ((?def4447 (not ?def422)))
(let ((?def418 (= e6 (op e3 e4))))
(let ((?def4459 (not ?def418)))
(let ((?def393 (= e0 (op e3 e3))))
(let ((?def1779 (not ?def393)))
(let ((?def382 (= e2 (op e3 e2))))
(let ((?def4462 (not ?def382)))
(let ((?def370 (= e3 (op e3 e1))))
(let ((?def4470 (not ?def370)))
(let ((?def359 (= e4 (op e3 e0))))
(let ((?def4312 (not ?def359)))
(let ((?def342 (= e3 (op e2 e6))))
(let ((?def4483 (not ?def342)))
(let ((?def332 (= e5 (op e2 e5))))
(let ((?def4492 (not ?def332)))
(let ((?def309 (= e0 (op e2 e4))))
(let ((?def4494 (not ?def309)))
(let ((?def298 (= e2 (op e2 e3))))
(let ((?def4503 (not ?def298)))
(let ((?def282 (= e1 (op e2 e2))))
(let ((?def1789 (not ?def282)))
(let ((?def274 (= e4 (op e2 e1))))
(let ((?def4512 (not ?def274)))
(let ((?def265 (= e6 (op e2 e0))))
(let ((?def4521 (not ?def265)))
(let ((?def250 (= e6 (op e1 e6))))
(let ((?def4528 (not ?def250)))
(let ((?def232 (= e4 (op e1 e5))))
(let ((?def4533 (not ?def232)))
(let ((?def212 (= e1 (op e1 e4))))
(let ((?def4537 (not ?def212)))
(let ((?def206 (= e5 (op e1 e3))))
(let ((?def4311 (not ?def206)))
(let ((?def188 (= e3 (op e1 e2))))
(let ((?def4552 (not ?def188)))
(let ((?def169 (= e0 (op e1 e1))))
(let ((?def1775 (not ?def169)))
(let ((?def159 (= e2 (op e1 e0))))
(let ((?def4558 (not ?def159)))
(let ((?def143 (= e1 (op e0 e6))))
(let ((?def4564 (not ?def143)))
(let ((?def131 (= e2 (op e0 e5))))
(let ((?def4310 (not ?def131)))
(let ((?def121 (= e4 (op e0 e4))))
(let ((?def4580 (not ?def121)))
(let ((?def111 (= (op e0 e3) e6)))
(let ((?def4589 (not ?def111)))
(let ((?def86 (= e0 (op e0 e2))))
(let ((?def4590 (not ?def86)))
(let ((?def81 (= (op e0 e1) e5)))
(let ((?def4602 (not ?def81)))
(let ((?def64 (= (op e0 e0) e3)))
(let ((?def1813 (not ?def64)))
(let ((?def4605 (or ?def1813 ?def4602 ?def4590 ?def4589 ?def4580 ?def4310 ?def4564 ?def4558 ?def1775 ?def4552 ?def4311 ?def4537 ?def4533 ?def4528 ?def4521 ?def4512 ?def1789 ?def4503 ?def4494 ?def4492 ?def4483 ?def4312 ?def4470 ?def4462 ?def1779 ?def4459 ?def4447 ?def4444 ?def4432 ?def4431 ?def4423 ?def4412 ?def1806 ?def4407 ?def4401 ?def4395 ?def4384 ?def4313 ?def4374 ?def4366 ?def1783 ?def4358 ?def4350 ?def4344 ?def4339 ?def4331 ?def4326 ?def4320 ?def1785)))

(not ?def4605
)))))))))))))))))))))))))))))))))))))))))))))))))))))))))))))))))))))))))))))))))))))))))))))))))))))
(check-sat)
(exit)
